Route #1: 1 44 6 24 37 26
Route #2: 23 28 7 11 40 30 19 34 27
Route #3: 13 17 18 43 29
Route #4: 32 20 5 21 33 41 8 10 3
Route #5: 12 39 36 42 4 16 22 9
Route #6: 15 25 2 38 31 35 14
Cost 948
Time 0.065944
